Route #1: 13 30 42 22 38 36 2
Route #2: 15 27 35 39 24 26 14
Route #3: 6 34 41 4 8 9 37
Route #4: 20 25 12 1 17 5
Route #5: 29 21 32 19 18 16 7
Route #6: 40 28 33 43 31 3
Route #7: 11 23 10
cost 1026.4217529296875